p edge 9 36
e 1 2 -626.0
e 1 3 919.0
e 1 4 158.0
e 1 5 186.0
e 1 6 -658.0
e 1 7 -981.0
e 1 8 -496.0
e 1 9 646.0
e 2 3 -184.0
e 2 4 -528.0
e 2 5 -846.0
e 2 6 763.0
e 2 7 -91.0
e 2 8 -659.0
e 2 9 -945.0
e 3 4 353.0
e 3 5 735.0
e 3 6 -121.0
e 3 7 -239.0
e 3 8 906.0
e 3 9 -117.0
e 4 5 -967.0
e 4 6 -68.0
e 4 7 699.0
e 4 8 -942.0
e 4 9 -655.0
e 5 6 962.0
e 5 7 -425.0
e 5 8 964.0
e 5 9 152.0
e 6 7 -553.0
e 6 8 -382.0
e 6 9 -308.0
e 7 8 139.0
e 7 9 -332.0
e 8 9 -184.0
